 81 21 47 5 76 6 95 69 83 68 31 49 23 14 91 51 56 7 82 53 45 80 62 44 42 90 89 67 40 94 3 35 78 58 37 77 71 59 17 99 33 84 15 64 55 9 30 61 70 50 87 43 79 66 32 12 93 2 25 20 88 46 8 73 75 98 29 36 41 63 48 1 54 10 85 0 38 65 13 52 86 18 57 4 19 97 22 16 26 72 11 28 60 27 74 96 92 34 39 24 56 7 65 0 38 81 92 96 74 27 60 34 39 24 21 47 5 76 6 95 69 83 68 31 49 23 14 91 51 82 53 45 80 62 44 42 90 89 67 40 94 3 35 78 58 37 77 71 59 17 99 33 84 15 64 55 9 30 61 70 50 79 87 43 93 2 12 32 66 46 8 73 75 88 20 25 98 29 36 41 63 48 1 54 97 22 16 26 72 11 28 19 4 57 85 10 18 13 52 86 56 7 65 0 38 81 92 96 74 27 60 34 39 24 21 47 5 76 6 95 69 83 68 31 49 23 14 91 51 82 53 45 80 62 44 42 90 89 67 40 94 3 35 78 58 37 77 71 59 17 99 33 84 15 64 55 9 30 61 70 50 79 87 43 93 2 12 32 66 46 8 73 75 88 20 25 98 29 36 41 63 48 1 54 97 22 16 26 72 11 28 19 4 57 85 10 18 13 52 86 81 92 96 74 27 60 34 39 24 21 47 5 76 6 95 69 83 68 31 49 23 14 91 51 56 7 82 53 45 80 62 44 42 90 89 67 40 94 3 35 78 58 37 77 71 59 17 99 33 84 15 64 55 9 30 61 70 50 87 43 79 66 32 12 93 2 25 20 88 46 8 73 75 98 36 29 41 63 48 1 54 97 22 16 26 72 11 28 19 4 57 85 10 18 13 52 86 65 0 38 81 92 96 74 27 60 34 39 24 21 47 5 76 6 95 69 83 68 31 49 23 14 91 51 56 7 82 53 45 80 62 44 42 90 89 67 40 94 3 35 78 58 37 77 71 59 17 99 33 84 15 64 55 9 30 61 70 50 87 43 79 66 32 12 93 2 25 20 88 46 8 73 75 98 36 29 41 63 48 1 54 97 22 16 26 72 11 28 19 4 57 85 10 18 13 52 86 65 0 38 52 13 18 10 85 57 4 19 97 22 16 26 72 11 28 60 27 74 96 92 34 39 24 81 21 47 5 76 6 95 69 83 68 31 49 23 14 91 51 56 7 82 53 45 80 62 44 42 90 89 67 40 94 3 35 78 58 37 77 71 59 17 99 33 84 15 64 55 9 30 61 70 50 87 43 79 66 32 12 93 2 25 20 88 46 8 73 75 98 29 36 41 63 48 1 54 0 38 65 86
 60 27 74 96 92 34 39 24 81 21 47 5 76 6 95 69 83 68 31 49 23 14 91 51 56 7 65 0 38 19 4 57 85 10 18 13 52 86 33 84 15 64 55 9 30 61 70 50 79 87 43 77 71 62 80 45 53 82 3 94 40 67 89 90 42 44 78 35 58 37 59 17 99 2 93 12 32 66 46 8 73 75 88 20 25 98 29 36 41 63 48 1 54 97 22 16 26 72 11 28
 60 27 74 96 92 34 39 24 81 21 47 5 76 6 95 69 83 68 31 49 23 14 91 51 56 7 65 0 38 19 4 57 85 10 18 13 52 86 33 84 15 64 55 9 30 61 70 50 79 87 43 77 71 62 80 45 53 82 3 94 40 67 89 90 42 44 78 35 58 37 59 17 99 2 93 12 32 66 46 8 73 75 88 20 25 98 29 36 41 63 48 1 54 97 22 16 26 72 11 28
 60 27 74 96 92 34 39 24 81 21 47 5 76 6 95 69 83 68 31 49 23 14 91 51 56 7 65 0 38 19 4 57 85 10 18 13 52 86 33 84 15 64 55 9 30 61 70 50 79 87 43 77 71 62 80 45 53 82 3 94 40 67 89 90 42 44 78 35 58 37 59 17 99 2 93 12 32 66 46 8 73 75 88 20 25 98 29 36 41 63 48 1 54 97 22 16 26 72 11 28
 60 27 74 96 92 34 39 24 81 21 47 5 76 6 95 69 83 68 31 49 23 14 91 51 56 7 65 0 38 19 4 57 85 10 18 13 52 86 33 84 15 64 55 9 30 61 70 50 79 87 43 77 71 62 80 45 53 82 3 94 40 67 89 90 42 44 78 35 58 37 59 17 99 2 93 12 32 66 46 8 73 75 88 20 25 98 29 36 41 63 48 1 54 97 22 16 26 72 11 28
 60 27 74 96 92 34 39 24 81 21 47 5 76 6 95 69 83 68 31 49 23 14 91 51 56 7 65 0 38 19 4 57 85 10 18 13 52 86 33 84 15 64 55 9 30 61 70 50 79 87 43 77 71 62 80 45 53 82 3 94 40 67 89 90 42 44 78 35 58 37 59 17 99 2 93 12 32 66 46 8 73 75 88 20 25 98 29 36 41 63 48 1 54 97 22 16 26 72 11 28
 18 13 52 86 33 84 15 64 55 9 30 61 70 50 87 43 79 12 32 66 46 8 73 75 88 20 25 2 93 36 29 98 41 63 48 1 54 97 22 16 26 72 11 28 60 27 74 96 92 34 39 24 81 21 47 5 76 6 95 69 83 68 31 49 23 14 91 51 56 7 82 53 45 80 62 44 42 90 89 67 40 94 3 35 78 58 37 77 71 59 17 99 65 0 38 19 4 57 85 10
 18 13 52 86 33 84 15 64 55 9 30 61 70 50 87 43 79 12 32 66 46 8 73 75 88 20 25 2 93 36 29 98 41 63 48 1 54 97 22 16 26 72 11 28 60 27 74 96 92 34 39 24 81 21 47 5 76 6 95 69 83 68 31 49 23 14 91 51 56 7 82 53 45 80 62 44 42 90 89 67 40 94 3 35 78 58 37 77 71 59 17 99 65 0 38 19 4 57 85 10
 18 13 52 86 33 84 15 64 55 9 30 61 70 50 87 43 79 12 32 66 46 8 73 75 88 20 25 2 93 36 29 98 41 63 48 1 54 97 22 16 26 72 11 28 60 27 74 96 92 34 39 24 81 21 47 5 76 6 95 69 83 68 31 49 23 14 91 51 56 7 82 53 45 80 62 44 42 90 89 67 40 94 3 35 78 58 37 77 71 59 17 99 65 0 38 19 4 57 85 10
